30 100000
72 86279
20 15016
37 30960
68 67466
53 87128
3 28674
49 33587
79 71677
91 59326
6 21414
86 8196
50 95178
80 79726
73 53788
1 53876
96 33435
90 18682
22 97516
2 12504
59 18856
95 31183
11 80264
63 45531
78 37036
4 73865
89 29885
86 22838
76 50208
13 51333
74 95026
